benchmarks_vrp/CMT4/no_cluster/CMT4_11.vrp
NAME: CMT4_11
TYPE: CVRP
COMMENT: 1028.42 - Cluster Nr.11
DIMENSION: 11
CAPACITY: 200
EDGE_WEIGHT_TYPE: EUC_2D
NODE_COORD_TYPE: TWOD_COORDS
NODE_COORD_SECTION: 
7 63 65
2 43 67
6 63 69
3 67 5
9 62 77
4 40 60
5 57 68
8 45 65
10 35 35
11 49 73
1 62 63
DEPOT_SECTION: 
10
-1
DEMAND_SECTION: 
3 25
1 17
11 25
8 9
6 6
9 20
10 0
5 15
2 14
7 8
4 21
EOF
