benchmarks_vrp/CMT4/no_cluster/CMT4_11.tour
NAME: CMT4_11 solution
TYPE: TOUR
TOUR_SECTION:
10 3 1 7 6 9 5 11 2 8 4 -1
-1
EOF